214
750
525	2
522	1
521	2
518	1
517	2
513	1
510	1
506	1
505	1
504	1
503	2
501	1
496	3
494	1
492	1
487	1
486	1
485	3
484	2
483	3
481	1
480	2
478	1
476	2
475	1
473	1
469	2
468	1
464	1
463	1
462	1
461	3
460	1
458	1
457	2
455	2
454	1
453	1
451	1
450	1
449	5
448	1
446	1
445	1
442	2
441	2
440	1
436	2
433	1
431	1
429	1
428	2
425	2
424	1
423	1
422	2
421	1
420	1
419	3
418	1
413	1
412	1
411	1
409	1
408	1
407	1
405	2
401	1
399	1
398	1
397	1
394	1
393	1
388	1
387	4
386	1
385	1
381	1
379	1
377	1
375	1
374	1
372	4
371	1
370	2
369	2
367	1
365	3
363	2
360	1
359	2
356	1
353	2
352	1
351	1
349	1
348	1
346	3
345	2
344	2
343	3
341	1
340	1
338	1
337	1
336	1
331	2
330	3
329	1
327	3
326	1
324	1
323	1
322	1
321	3
320	1
319	2
318	1
317	2
314	1
312	1
310	1
309	1
308	1
306	2
305	1
304	1
302	1
299	1
297	1
296	1
289	2
288	1
287	2
284	2
283	1
282	2
281	1
280	1
279	1
277	1
275	3
273	1
272	1
271	2
269	1
267	1
266	1
264	2
263	1
262	1
261	3
259	1
258	1
257	1
250	1
246	1
245	1
244	1
243	1
240	1
238	1
237	1
236	1
234	1
231	1
228	3
227	2
226	2
225	1
221	2
220	1
219	3
217	1
216	1
215	1
214	2
210	1
209	2
208	1
206	1
204	1
203	2
202	2
201	1
200	1
199	1
197	1
196	1
194	2
193	1
191	2
188	2
185	1
182	1
181	2
179	1
177	1
176	1
175	1
174	1
171	1
169	1
167	1
166	1
159	1
158	1
157	1
156	1
155	1
153	1
152	1
151	1
150	2
